import sys
sys.path.insert(0, '..')
import resp2


molecule {
	o        0.000000    0.127170    0.000000 
	h        0.757997   -0.508679    0.000000 
	h       -0.757997   -0.508679    0.000000
}

set globals {
  basis 6-31g*
}

set resp2 {
    N_VDW_LAYERS 1
    VDW_SCALE_FACTOR 1.0
    VDW_POINT_DENSITY 10.0
}

energy('scf')
resp2.fit()

